HUN,8,6,26
4,13,5,9,3,10,0,6,2,16,1,20
4,1,5,15,1,9,0,17,3,25,2,1
1,11,0,20,4,6,5,19,3,22,2,12
3,3,1,12,5,22,4,4,2,24,0,12
2,15,4,7,3,14,5,12,1,19,0,18
2,27,1,24,3,20,4,4,5,11,0,9
4,2,1,13,5,7,2,4,3,4,0,28
5,10,0,4,4,27,2,10,3,16,1,3
